Route #1: 0 34 19 44 48 6 21 5 11 37 0
Route #2: 0 29 1 26 46 22 0
Route #3: 0 18 33 38 39 4 20 8 2 40 0
Route #4: 0 17 43 16 42 10 41 47 0
Route #5: 0 7 31 36 28 49 0
Route #6: 0 15 32 45 35 23 9 12 3 27 24 14 25 30 0
Route #7: 0 13 0
Cost 1390:
